SECTION Graph
Nodes 58
Edges 1653
E 1 2 2635
E 1 3 2713
E 1 4 2437
E 1 5 1600
E 1 6 2845
E 1 7 6002
E 1 8 1743
E 1 9 594
E 1 10 2182
E 1 11 2906
E 1 12 1658
E 1 13 464
E 1 14 3334
E 1 15 3987
E 1 16 2870
E 1 17 2601
E 1 18 330
E 1 19 3049
E 1 20 1302
E 1 21 3399
E 1 22 1946
E 1 23 1278
E 1 24 669
E 1 25 627
E 1 26 2878
E 1 27 1737
E 1 28 3124
E 1 29 2878
E 1 30 307
E 1 31 5217
E 1 32 799
E 1 33 3305
E 1 34 3716
E 1 35 2251
E 1 36 2878
E 1 37 3467
E 1 38 4316
E 1 39 2963
E 1 40 512
E 1 41 2515
E 1 42 4850
E 1 43 1937
E 1 44 367
E 1 45 3601
E 1 46 3936
E 1 47 2430
E 1 48 2691
E 1 49 2087
E 1 50 1861
E 1 51 2358
E 1 52 2263
E 1 53 1425
E 1 54 2266
E 1 55 2166
E 1 56 3870
E 1 57 1417
E 1 58 739
E 2 3 314
E 2 4 2636
E 2 5 666
E 2 6 1096
E 2 7 4645
E 2 8 693
E 2 9 2889
E 2 10 287
E 2 11 772
E 2 12 1135
E 2 13 2875
E 2 14 1424
E 2 15 2185
E 2 16 1193
E 2 17 846
E 2 18 2142
E 2 19 1127
E 2 20 3104
E 2 21 1484
E 2 22 490
E 2 23 990
E 2 24 1950
E 2 25 2855
E 2 26 975
E 2 27 926
E 2 28 1214
E 2 29 599
E 2 30 2535
E 2 31 3860
E 2 32 3027
E 2 33 1407
E 2 34 1811
E 2 35 359
E 2 36 1060
E 2 37 1557
E 2 38 2959
E 2 39 394
E 2 40 2740
E 2 41 98
E 2 42 3538
E 2 43 856
E 2 44 2026
E 2 45 1710
E 2 46 1733
E 2 47 508
E 2 48 194
E 2 49 532
E 2 50 2906
E 2 51 435
E 2 52 335
E 2 53 2470
E 2 54 137
E 2 55 234
E 2 56 2072
E 2 57 1196
E 2 58 1517
E 3 4 2730
E 3 5 706
E 3 6 791
E 3 7 4588
E 3 8 922
E 3 9 2991
E 3 10 217
E 3 11 760
E 3 12 1050
E 3 13 2915
E 3 14 1119
E 3 15 1776
E 3 16 1451
E 3 17 5410
E 3 18 2182
E 3 19 846
E 3 20 3333
E 3 21 578
E 3 22 721
E 3 23 1030
E 3 24 1990
E 3 25 2895
E 3 26 670
E 3 27 835
E 3 28 909
E 3 29 287
E 3 30 2575
E 3 31 3803
E 3 32 3067
E 3 33 1102
E 3 34 1505
E 3 35 158
E 3 36 439
E 3 37 1248
E 3 38 2902
E 3 39 287
E 3 40 2780
E 3 41 276
E 3 42 3436
E 3 43 771
E 3 44 2066
E 3 45 1395
E 3 46 1740
E 3 47 407
E 3 48 279
E 3 49 334
E 3 50 3135
E 3 51 337
E 3 52 235
E 3 53 2699
E 3 54 451
E 3 55 546
E 3 56 1882
E 3 57 2699
E 3 58 1557
E 4 5 2824
E 4 6 3457
E 4 7 6083
E 4 8 2120
E 4 9 2040
E 4 10 2844
E 4 11 2973
E 4 12 3937
E 4 13 1958
E 4 14 3710
E 4 15 4363
E 4 16 2941
E 4 17 3207
E 4 18 1991
E 4 19 3512
E 4 20 1571
E 4 21 3392
E 4 22 2013
E 4 23 2922
E 4 24 2368
E 4 25 2170
E 4 26 3336
E 4 27 3503
E 4 28 3500
E 4 29 2884
E 4 30 2109
E 4 31 5298
E 4 32 2108
E 4 33 3643
E 4 34 4092
E 4 35 2934
E 4 36 3093
E 4 37 3843
E 4 38 4391
E 4 39 2763
E 4 40 2083
E 4 41 2543
E 4 42 4925
E 4 43 3236
E 4 44 2107
E 4 45 3939
E 4 46 4274
E 4 47 3008
E 4 48 2522
E 4 49 3006
E 4 50 806
E 4 51 2936
E 4 52 3026
E 4 53 947
E 4 54 2464
E 4 55 2364
E 4 56 4208
E 4 57 3116
E 4 58 2390
E 5 6 1247
E 5 7 4746
E 5 8 716
E 5 9 2223
E 5 10 584
E 5 11 1442
E 5 12 694
E 5 13 2089
E 5 14 1577
E 5 15 2230
E 5 16 1609
E 5 17 1003
E 5 18 1260
E 5 19 1297
E 5 20 2535
E 5 21 1511
E 5 22 908
E 5 23 324
E 5 24 1116
E 5 25 2183
E 5 26 1126
E 5 27 260
E 5 28 1367
E 5 29 996
E 5 30 1863
E 5 31 3961
E 5 32 2355
E 5 33 1565
E 5 34 1959
E 5 35 660
E 5 36 1106
E 5 37 1710
E 5 38 3060
E 5 39 991
E 5 40 2068
E 5 41 523
E 5 42 3594
E 5 43 434
E 5 44 1354
E 5 45 1861
E 5 46 2196
E 5 47 658
E 5 48 750
E 5 49 563
E 5 50 2929
E 5 51 586
E 5 52 668
E 5 53 2493
E 5 54 494
E 5 55 557
E 5 56 2130
E 5 57 524
E 5 58 851
E 6 7 5126
E 6 8 1653
E 6 9 3545
E 6 10 708
E 6 11 1298
E 6 12 1342
E 6 13 3451
E 6 14 347
E 6 15 1126
E 6 16 1989
E 6 17 250
E 6 18 2736
E 6 19 138
E 6 20 3786
E 6 21 888
E 6 22 1452
E 6 23 1671
E 6 24 2336
E 6 25 3431
E 6 26 124
E 6 27 1165
E 6 28 189
E 6 29 640
E 6 30 3110
E 6 31 4341
E 6 32 3603
E 6 33 489
E 6 34 855
E 6 35 730
E 6 36 364
E 6 37 598
E 6 38 3440
E 6 39 841
E 6 40 3316
E 6 41 919
E 6 42 3974
E 6 43 1063
E 6 44 2620
E 6 45 940
E 6 46 1090
E 6 47 722
E 6 48 921
E 6 49 761
E 6 50 3866
E 6 51 652
E 6 52 754
E 6 53 3430
E 6 54 1096
E 6 55 1191
E 6 56 1232
E 6 57 1582
E 6 58 2098
E 7 8 4267
E 7 9 6553
E 7 10 4826
E 7 11 3830
E 7 12 5951
E 7 13 6417
E 7 14 5423
E 7 15 6089
E 7 16 3142
E 7 17 4876
E 7 18 5676
E 7 19 5181
E 7 20 6678
E 7 21 4720
E 7 22 4074
E 7 23 5071
E 7 24 5724
E 7 25 6675
E 7 26 5000
E 7 27 4993
E 7 28 5221
E 7 29 4494
E 7 30 6265
E 7 31 785
E 7 32 6776
E 7 33 5265
E 7 34 5756
E 7 35 4628
E 7 36 4747
E 7 37 5511
E 7 38 1686
E 7 39 4276
E 7 40 6472
E 7 41 4447
E 7 42 2230
E 7 43 5167
E 7 44 5784
E 7 45 5561
E 7 46 5891
E 7 47 4902
E 7 48 4353
E 7 49 4922
E 7 50 6480
E 7 51 4759
E 7 52 4771
E 7 53 6044
E 7 54 4299
E 7 55 4199
E 7 56 5830
E 7 57 5271
E 7 58 5404
E 8 9 2296
E 8 10 923
E 8 11 1175
E 8 12 1282
E 8 13 2162
E 8 14 1906
E 8 15 2559
E 8 16 1133
E 8 17 1352
E 8 18 1422
E 8 19 1651
E 8 20 2423
E 8 21 1588
E 8 22 209
E 8 23 1030
E 8 24 1461
E 8 25 2420
E 8 26 1538
E 8 27 965
E 8 28 1716
E 8 29 1112
E 8 30 2010
E 8 31 3482
E 8 32 2521
E 8 33 1839
E 8 34 2288
E 8 35 1000
E 8 36 1289
E 8 37 2039
E 8 38 2551
E 8 39 955
E 8 40 2217
E 8 41 715
E 8 42 3125
E 8 43 1145
E 8 44 1529
E 8 45 2131
E 8 46 2466
E 8 47 1087
E 8 48 718
E 8 49 1083
E 8 50 2225
E 8 51 1015
E 8 52 960
E 8 53 1789
E 8 54 537
E 8 55 436
E 8 56 2400
E 8 57 1238
E 8 58 1199
E 9 10 2869
E 9 11 3459
E 9 12 2366
E 9 13 147
E 9 14 3741
E 9 15 4399
E 9 16 3417
E 9 17 3163
E 9 18 924
E 9 19 3462
E 9 20 681
E 9 21 3734
E 9 22 2493
E 9 23 1934
E 9 24 1377
E 9 25 130
E 9 26 3402
E 9 27 2449
E 9 28 3531
E 9 29 3219
E 9 30 343
E 9 31 5766
E 9 32 228
E 9 33 3724
E 9 34 4128
E 9 35 2883
E 9 36 3277
E 9 37 3870
E 9 38 4835
E 9 39 3214
E 9 40 184
E 9 41 2746
E 9 42 4875
E 9 43 2492
E 9 44 925
E 9 45 4017
E 9 46 4362
E 9 47 2985
E 9 48 2973
E 9 49 2831
E 9 50 1544
E 9 51 2913
E 9 52 2891
E 9 53 1103
E 9 54 2717
E 9 55 2655
E 9 56 4504
E 9 57 1972
E 9 58 1447
E 10 11 1004
E 10 12 781
E 10 13 2793
E 10 14 1036
E 10 15 1694
E 10 16 1694
E 10 17 458
E 10 18 1844
E 10 19 757
E 10 20 3125
E 10 21 1096
E 10 22 827
E 10 23 908
E 10 24 1702
E 10 25 2773
E 10 26 587
E 10 27 844
E 10 28 826
E 10 29 455
E 10 30 2453
E 10 31 4041
E 10 32 2945
E 10 33 1019
E 10 34 1423
E 10 35 75
E 10 36 572
E 10 37 1165
E 10 38 3140
E 10 39 560
E 10 40 2658
E 10 41 227
E 10 42 3674
E 10 43 502
E 10 44 1944
E 10 45 1312
E 10 46 1650
E 10 47 170
E 10 48 383
E 10 49 169
E 10 50 3136
E 10 51 98
E 10 52 80
E 10 53 2700
E 10 54 411
E 10 55 508
E 10 56 1584
E 10 57 948
E 10 58 1435
E 11 12 2128
E 11 13 3322
E 11 14 1609
E 11 15 2266
E 11 16 693
E 11 17 1041
E 11 18 2585
E 11 19 1353
E 11 20 3586
E 11 21 887
E 11 22 974
E 11 23 2553
E 11 24 2624
E 11 25 3583
E 11 26 1177
E 11 27 1488
E 11 28 1398
E 11 29 673
E 11 30 3173
E 11 31 3045
E 11 32 3684
E 11 33 1444
E 11 34 1935
E 11 35 941
E 11 36 926
E 11 37 1686
E 11 38 2149
E 11 39 455
E 11 40 3380
E 11 41 894
E 11 42 2688
E 11 43 1433
E 11 44 2692
E 11 45 1740
E 11 46 2070
E 11 47 1081
E 11 48 696
E 11 49 1101
E 11 50 3388
E 11 51 1009
E 11 52 950
E 11 53 2952
E 11 54 1063
E 11 55 964
E 11 56 2009
E 11 57 1972
E 11 58 2286
E 12 13 2265
E 12 14 1695
E 12 15 2353
E 12 16 2819
E 12 17 1117
E 12 18 1557
E 12 19 1416
E 12 20 2636
E 12 21 1755
E 12 22 1608
E 12 23 456
E 12 24 1002
E 12 25 2245
E 12 26 1246
E 12 27 257
E 12 28 1485
E 12 29 1225
E 12 30 1925
E 12 31 5166
E 12 32 2417
E 12 33 1678
E 12 34 2082
E 12 35 871
E 12 36 1231
E 12 37 1824
E 12 38 4265
E 12 39 1290
E 12 40 2130
E 12 41 1019
E 12 42 4799
E 12 43 279
E 12 44 1441
E 12 45 1971
E 12 46 2309
E 12 47 772
E 12 48 1148
E 12 49 618
E 12 50 2844
E 12 51 700
E 12 52 802
E 12 53 2413
E 12 54 1188
E 12 55 1248
E 12 56 2243
E 12 57 248
E 12 58 1210
E 13 14 3607
E 13 15 4265
E 13 16 3283
E 13 17 3029
E 13 18 931
E 13 19 3328
E 13 20 817
E 13 21 3600
E 13 22 2359
E 13 23 1876
E 13 24 1267
E 13 25 200
E 13 26 3158
E 13 27 2339
E 13 28 3397
E 13 29 3120
E 13 30 211
E 13 31 5632
E 13 32 366
E 13 33 3590
E 13 34 4004
E 13 35 2766
E 13 36 3134
E 13 37 3736
E 13 38 4701
E 13 39 3185
E 13 40 135
E 13 41 2914
E 13 42 5274
E 13 43 2267
E 13 44 815
E 13 45 3883
E 13 46 4221
E 13 47 2667
E 13 48 3043
E 13 49 2606
E 13 50 1451
E 13 51 2595
E 13 52 2697
E 13 53 1011
E 13 54 2563
E 13 55 2623
E 13 56 4155
E 13 57 1834
E 13 58 1337
E 14 15 665
E 14 16 2300
E 14 17 578
E 14 18 2845
E 14 19 474
E 14 20 4116
E 14 21 1216
E 14 22 1705
E 14 23 1901
E 14 24 2693
E 14 25 3848
E 14 26 652
E 14 27 1480
E 14 28 224
E 14 29 968
E 14 30 3547
E 14 31 4648
E 14 32 4020
E 14 33 176
E 14 34 394
E 14 35 1153
E 14 36 692
E 14 37 137
E 14 38 3752
E 14 39 1169
E 14 40 3744
E 14 41 1301
E 14 42 4291
E 14 43 1420
E 14 44 3047
E 14 45 479
E 14 46 629
E 14 47 1059
E 14 48 1249
E 14 49 1079
E 14 50 4119
E 14 51 982
E 14 52 967
E 14 53 3683
E 14 54 1424
E 14 55 1421
E 14 56 771
E 14 57 1939
E 14 58 2901
E 15 16 2957
E 15 17 1236
E 15 18 3706
E 15 19 992
E 15 20 4774
E 15 21 1471
E 15 22 2358
E 15 23 2654
E 15 24 3346
E 15 25 4589
E 15 26 1177
E 15 27 2151
E 15 28 887
E 15 29 1564
E 15 30 4099
E 15 31 5304
E 15 32 4591
E 15 33 818
E 15 34 262
E 15 35 1716
E 15 36 1350
E 15 37 528
E 15 38 4408
E 15 39 1827
E 15 40 4306
E 15 41 1905
E 15 42 4947
E 15 43 2073
E 15 44 3590
E 15 45 562
E 15 46 607
E 15 47 1717
E 15 48 2093
E 15 49 1742
E 15 50 4772
E 15 51 1645
E 15 52 1747
E 15 53 4036
E 15 54 2082
E 15 55 2179
E 15 56 760
E 15 57 2592
E 15 58 3554
E 16 17 1734
E 16 18 2543
E 16 19 2044
E 16 20 3544
E 16 21 1578
E 16 22 932
E 16 23 1939
E 16 24 2582
E 16 25 3304
E 16 26 1868
E 16 27 1861
E 16 28 2089
E 16 29 1362
E 16 30 3131
E 16 31 2357
E 16 32 3642
E 16 33 2133
E 16 34 2624
E 16 35 1491
E 16 36 1615
E 16 37 2379
E 16 38 1456
E 16 39 1144
E 16 40 3338
E 16 41 1310
E 16 42 1990
E 16 43 2035
E 16 44 2650
E 16 45 2429
E 16 46 2759
E 16 47 1770
E 16 48 1216
E 16 49 1790
E 16 50 3346
E 16 51 1622
E 16 52 1639
E 16 53 2910
E 16 54 1162
E 16 55 1062
E 16 56 2698
E 16 57 2139
E 16 58 2278
E 17 18 2267
E 17 19 300
E 17 20 3542
E 17 21 638
E 17 22 1202
E 17 23 1328
E 17 24 2094
E 17 25 3187
E 17 26 129
E 17 27 915
E 17 28 368
E 17 29 390
E 17 30 2866
E 17 31 4091
E 17 32 3359
E 17 33 561
E 17 34 965
E 17 35 480
E 17 36 114
E 17 37 711
E 17 38 3190
E 17 39 591
E 17 40 3072
E 17 41 669
E 17 42 3724
E 17 43 846
E 17 44 2379
E 17 45 854
E 17 46 1192
E 17 47 392
E 17 48 671
E 17 49 511
E 17 50 3565
E 17 51 408
E 17 52 388
E 17 53 3129
E 17 54 846
E 17 55 950
E 17 56 1126
E 17 57 1347
E 17 58 1860
E 18 19 2566
E 18 20 1273
E 18 21 2905
E 18 22 1619
E 18 23 1175
E 18 24 564
E 18 25 1068
E 18 26 2600
E 18 27 1638
E 18 28 2841
E 18 29 2470
E 18 30 770
E 18 31 5113
E 18 32 1240
E 18 33 3039
E 18 34 3433
E 18 35 2134
E 18 36 2580
E 18 37 3184
E 18 38 4182
E 18 39 2465
E 18 40 953
E 18 41 1997
E 18 42 4756
E 18 43 1834
E 18 44 114
E 18 45 3335
E 18 46 3670
E 18 47 2388
E 18 48 2349
E 18 49 1984
E 18 50 1715
E 18 51 2068
E 18 52 2074
E 18 53 1284
E 18 54 1968
E 18 55 2031
E 18 56 3604
E 18 57 1340
E 18 58 636
E 19 20 3841
E 19 21 945
E 19 22 1507
E 19 23 1627
E 19 24 2393
E 19 25 3486
E 19 26 178
E 19 27 1214
E 19 28 254
E 19 29 652
E 19 30 3165
E 19 31 4396
E 19 32 3658
E 19 33 531
E 19 34 730
E 19 35 1079
E 19 36 374
E 19 37 476
E 19 38 3495
E 19 39 856
E 19 40 3371
E 19 41 968
E 19 42 4029
E 19 43 1140
E 19 44 2678
E 19 45 806
E 19 46 960
E 19 47 691
E 19 48 978
E 19 49 810
E 19 50 3864
E 19 51 707
E 19 52 687
E 19 53 3428
E 19 54 1145
E 19 55 1249
E 19 56 1096
E 19 57 1646
E 19 58 2159
E 20 21 3998
E 20 22 2620
E 20 23 2217
E 20 24 1647
E 20 25 693
E 20 26 3665
E 20 27 2676
E 20 28 3906
E 20 29 3487
E 20 30 1052
E 20 31 5893
E 20 32 537
E 20 33 4108
E 20 34 4503
E 20 35 3201
E 20 36 3635
E 20 37 4249
E 20 38 4962
E 20 39 3366
E 20 40 800
E 20 41 3064
E 20 42 5536
E 20 43 2804
E 20 44 1385
E 20 45 4401
E 20 46 4739
E 20 47 3199
E 20 48 3129
E 20 49 3032
E 20 50 1070
E 20 51 3122
E 20 52 3209
E 20 53 634
E 20 54 2948
E 20 55 2846
E 20 56 4673
E 20 57 2395
E 20 58 1681
E 21 22 1383
E 21 23 1835
E 21 24 2627
E 21 25 3846
E 21 26 767
E 21 27 1771
E 21 28 788
E 21 29 520
E 21 30 3380
E 21 31 3925
E 21 32 3872
E 21 33 938
E 21 34 1200
E 21 35 842
E 21 36 524
E 21 37 943
E 21 38 3024
E 21 39 607
E 21 40 3585
E 21 41 892
E 21 42 3558
E 21 43 1470
E 21 44 2871
E 21 45 1288
E 21 46 1438
E 21 47 1118
E 21 48 742
E 21 49 1143
E 21 50 3801
E 21 51 1046
E 21 52 976
E 21 53 3365
E 21 54 1076
E 21 55 1174
E 21 56 1185
E 21 57 1989
E 21 58 2951
E 22 23 1238
E 22 24 1612
E 22 25 2617
E 22 26 1332
E 22 27 1174
E 22 28 1495
E 22 29 875
E 22 30 2211
E 22 31 3289
E 22 32 2718
E 22 33 1634
E 22 34 2087
E 22 35 774
E 22 36 1109
E 22 37 1838
E 22 38 2388
E 22 39 754
E 22 40 2414
E 22 41 607
E 22 42 2922
E 22 43 1348
E 22 44 1726
E 22 45 1930
E 22 46 2265
E 22 47 991
E 22 48 517
E 22 49 983
E 22 50 2422
E 22 51 919
E 22 52 880
E 22 53 1986
E 22 54 459
E 22 55 359
E 22 56 2199
E 22 57 1438
E 22 58 1350
E 23 24 801
E 23 25 1865
E 23 26 1450
E 23 27 554
E 23 28 2243
E 23 29 1546
E 23 30 1545
E 23 31 4286
E 23 32 2037
E 23 33 1889
E 23 34 2293
E 23 35 984
E 23 36 1542
E 23 37 2040
E 23 38 3385
E 23 39 1315
E 23 40 1750
E 23 41 847
E 23 42 3919
E 23 43 600
E 23 44 1061
E 23 45 2182
E 23 46 2510
E 23 47 1093
E 23 48 1074
E 23 49 887
E 23 50 2425
E 23 51 1021
E 23 52 992
E 23 53 1994
E 23 54 818
E 23 55 881
E 23 56 2454
E 23 57 432
E 23 58 1394
E 24 25 1256
E 24 26 2083
E 24 27 1252
E 24 28 2324
E 24 29 2058
E 24 30 936
E 24 31 4929
E 24 32 1428
E 24 33 2517
E 24 34 2686
E 24 35 1841
E 24 36 2057
E 24 37 2806
E 24 38 4038
E 24 39 2123
E 24 40 1141
E 24 41 1849
E 24 42 4572
E 24 43 1275
E 24 44 452
E 24 45 2805
E 24 46 3143
E 24 47 1610
E 24 48 2020
E 24 49 1612
E 24 50 1869
E 24 51 1542
E 24 52 1642
E 24 53 1422
E 24 54 1748
E 24 55 1811
E 24 56 3082
E 24 57 754
E 24 58 259
E 25 26 3310
E 25 27 2324
E 25 28 3551
E 25 29 3185
E 25 30 372
E 25 31 5890
E 25 32 190
E 25 33 3754
E 25 34 4148
E 25 35 2849
E 25 36 3295
E 25 37 3899
E 25 38 4959
E 25 39 3180
E 25 40 125
E 25 41 2712
E 25 42 5533
E 25 43 2524
E 25 44 954
E 25 45 4050
E 25 46 4385
E 25 47 2836
E 25 48 2939
E 25 49 2644
E 25 50 1669
E 25 51 2764
E 25 52 2857
E 25 53 1233
E 25 54 2683
E 25 55 2746
E 25 56 4319
E 25 57 2004
E 25 58 1326
E 26 27 1044
E 26 28 432
E 26 29 519
E 26 30 2995
E 26 31 4215
E 26 32 3487
E 26 33 709
E 26 34 908
E 26 35 609
E 26 36 243
E 26 37 639
E 26 38 3314
E 26 39 720
E 26 40 3200
E 26 41 798
E 26 42 3848
E 26 43 969
E 26 44 2486
E 26 45 984
E 26 46 1138
E 26 47 528
E 26 48 800
E 26 49 640
E 26 50 3751
E 26 51 536
E 26 52 517
E 26 53 3315
E 26 54 975
E 26 55 1078
E 26 56 1274
E 26 57 1329
E 26 58 1189
E 27 28 1275
E 27 29 1023
E 27 30 2004
E 27 31 4208
E 27 32 2496
E 27 33 1468
E 27 34 1637
E 27 35 669
E 27 36 1022
E 27 37 1627
E 27 38 3307
E 27 39 1088
E 27 40 2209
E 27 41 783
E 27 42 3841
E 27 43 184
E 27 44 1524
E 27 45 1756
E 27 46 2094
E 27 47 570
E 27 48 946
E 27 49 523
E 27 50 3178
E 27 51 498
E 27 52 600
E 27 53 2742
E 27 54 754
E 27 55 817
E 27 56 2033
E 27 57 498
E 27 58 1460
E 28 29 758
E 28 30 3236
E 28 31 4436
E 28 32 4225
E 28 33 283
E 28 34 606
E 28 35 848
E 28 36 482
E 28 37 359
E 28 38 3535
E 28 39 959
E 28 40 3441
E 28 41 1037
E 28 42 4069
E 28 43 1210
E 28 44 2727
E 28 45 701
E 28 46 851
E 28 47 702
E 28 48 1039
E 28 49 879
E 28 50 3929
E 28 51 777
E 28 52 756
E 28 53 3493
E 28 54 1214
E 28 55 1311
E 28 56 1494
E 28 57 1570
E 28 58 2532
E 29 30 2865
E 29 31 3709
E 29 32 3036
E 29 33 478
E 29 34 1293
E 29 35 354
E 29 36 274
E 29 37 1036
E 29 38 2808
E 29 39 366
E 29 40 3070
E 29 41 447
E 29 42 3342
E 29 43 949
E 29 44 2356
E 29 45 708
E 29 46 837
E 29 47 577
E 29 48 367
E 29 49 623
E 29 50 3325
E 29 51 525
E 29 52 523
E 29 53 2889
E 29 54 631
E 29 55 728
E 29 56 1635
E 29 57 1304
E 29 58 2266
E 30 31 5480
E 30 32 549
E 30 33 3434
E 30 34 3828
E 30 35 2529
E 30 36 2975
E 30 37 3579
E 30 38 4549
E 30 39 2860
E 30 40 257
E 30 41 2392
E 30 42 5123
E 30 43 2204
E 30 44 656
E 30 45 3730
E 30 46 4065
E 30 47 2527
E 30 48 2619
E 30 49 2354
E 30 50 1608
E 30 51 2444
E 30 52 2537
E 30 53 1172
E 30 54 2406
E 30 55 2305
E 30 56 3999
E 30 57 1684
E 30 58 1006
E 31 32 5991
E 31 33 4480
E 31 34 4971
E 31 35 3843
E 31 36 3962
E 31 37 4791
E 31 38 901
E 31 39 3491
E 31 40 5687
E 31 41 3662
E 31 42 1445
E 31 43 4615
E 31 44 4999
E 31 45 4776
E 31 46 5106
E 31 47 4117
E 31 48 3568
E 31 49 4137
E 31 50 5695
E 31 51 3969
E 31 52 3986
E 31 53 5259
E 31 54 3514
E 31 55 3414
E 31 56 5045
E 31 57 4708
E 31 58 4619
E 32 33 3926
E 32 34 4320
E 32 35 3021
E 32 36 3467
E 32 37 4171
E 32 38 5060
E 32 39 3352
E 32 40 297
E 32 41 2884
E 32 42 5634
E 32 43 2696
E 32 44 1126
E 32 45 4222
E 32 46 4557
E 32 47 3008
E 32 48 3114
E 32 49 2846
E 32 50 1607
E 32 51 2936
E 32 52 3162
E 32 53 1171
E 32 54 2855
E 32 55 2918
E 32 56 4491
E 32 57 2176
E 32 58 1498
E 33 34 547
E 33 35 1041
E 33 36 675
E 33 37 290
E 33 38 3579
E 33 39 1152
E 33 40 3639
E 33 41 1230
E 33 42 4113
E 33 43 1402
E 33 44 2925
E 33 45 213
E 33 46 435
E 33 47 802
E 33 48 1232
E 33 49 1072
E 33 50 4052
E 33 51 970
E 33 52 949
E 33 53 3616
E 33 54 1407
E 33 55 1511
E 33 56 413
E 33 57 1763
E 33 58 2725
E 34 35 1444
E 34 36 1016
E 34 37 257
E 34 38 4002
E 34 39 1493
E 34 40 4041
E 34 41 1638
E 34 42 4604
E 34 43 1802
E 34 44 3319
E 34 45 354
E 34 46 229
E 34 47 1356
E 34 48 1849
E 34 49 1475
E 34 50 4501
E 34 51 1139
E 34 52 1352
E 34 53 4065
E 34 54 1839
E 34 55 1931
E 34 56 300
E 34 57 1932
E 34 58 2899
E 35 36 594
E 35 37 1187
E 35 38 2942
E 35 39 329
E 35 40 2734
E 35 41 148
E 35 42 3476
E 35 43 567
E 35 44 2020
E 35 45 1335
E 35 46 1672
E 35 47 243
E 35 48 287
E 35 49 268
E 35 50 3213
E 35 51 171
E 35 52 107
E 35 53 2777
E 35 54 315
E 35 55 419
E 35 56 1606
E 35 57 1087
E 35 58 2049
E 36 37 759
E 36 38 3061
E 36 39 705
E 36 40 3180
E 36 41 635
E 36 42 3595
E 36 43 971
E 36 44 2466
E 36 45 968
E 36 46 1306
E 36 47 506
E 36 48 705
E 36 49 625
E 36 50 3502
E 36 51 524
E 36 52 502
E 36 53 3066
E 36 54 960
E 36 55 1064
E 36 56 1240
E 36 57 1303
E 36 58 1974
E 37 38 3825
E 37 39 1236
E 37 40 3784
E 37 41 1381
E 37 42 4359
E 37 43 1553
E 37 44 3070
E 37 45 342
E 37 46 492
E 37 47 1099
E 37 48 1592
E 37 49 1218
E 37 50 4252
E 37 51 1115
E 37 52 1095
E 37 53 3816
E 37 54 1560
E 37 55 1672
E 37 56 634
E 37 57 1908
E 37 58 2570
E 38 39 2590
E 38 40 4848
E 38 41 2761
E 38 42 544
E 38 43 3481
E 38 44 4068
E 38 45 3875
E 38 46 4505
E 38 47 3145
E 38 48 2667
E 38 49 3236
E 38 50 4764
E 38 51 3073
E 38 52 3083
E 38 53 4328
E 38 54 2613
E 38 55 2513
E 38 56 4144
E 38 57 3590
E 38 58 3718
E 39 40 3065
E 39 41 432
E 39 42 3124
E 39 43 1014
E 39 44 2351
E 39 45 1445
E 39 46 1783
E 39 47 602
E 39 48 345
E 39 49 688
E 39 50 3168
E 39 51 590
E 39 52 488
E 39 53 2732
E 39 54 498
E 39 55 589
E 39 56 1717
E 39 57 1369
E 39 58 2331
E 40 41 2597
E 40 42 5330
E 40 43 2409
E 40 44 839
E 40 45 3935
E 40 46 4270
E 40 47 2721
E 40 48 2923
E 40 49 2559
E 40 50 1582
E 40 51 2649
E 40 52 2753
E 40 53 1146
E 40 54 2568
E 40 55 2651
E 40 56 4204
E 40 57 1889
E 40 58 1211
E 41 42 3294
E 41 43 722
E 41 44 1883
E 41 45 1423
E 41 46 1783
E 41 47 391
E 41 48 192
E 41 49 416
E 41 50 2928
E 41 51 319
E 41 52 217
E 41 53 2492
E 41 54 184
E 41 55 282
E 41 56 1795
E 41 57 1095
E 41 58 2042
E 42 43 4015
E 42 44 4642
E 42 45 4409
E 42 46 4739
E 42 47 3750
E 42 48 3201
E 42 49 3770
E 42 50 5338
E 42 51 3607
E 42 52 3617
E 42 53 4902
E 42 54 3147
E 42 55 3047
E 42 56 4678
E 42 57 4124
E 42 58 4252
E 43 44 1720
E 43 45 1698
E 43 46 2037
E 43 47 554
E 43 48 852
E 43 49 339
E 43 50 3004
E 43 51 429
E 43 52 533
E 43 53 2571
E 43 54 889
E 43 55 993
E 43 56 1967
E 43 57 527
E 43 58 1123
E 44 45 3221
E 44 46 3556
E 44 47 2274
E 44 48 2235
E 44 49 1870
E 44 50 1601
E 44 51 1954
E 44 52 1960
E 44 53 1170
E 44 54 1854
E 44 55 1917
E 44 56 3490
E 44 57 1226
E 44 58 522
E 45 46 273
E 45 47 1340
E 45 48 1525
E 45 49 1355
E 45 50 4344
E 45 51 1258
E 45 52 942
E 45 53 3908
E 45 54 1700
E 45 55 1798
E 45 56 312
E 45 57 2051
E 45 58 3033
E 46 47 1668
E 46 48 1863
E 46 49 1693
E 46 50 4679
E 46 51 1596
E 46 52 1580
E 46 53 4243
E 46 54 2038
E 46 55 2134
E 46 56 254
E 46 57 2389
E 46 58 3351
E 47 48 520
E 47 49 86
E 47 50 3299
E 47 51 72
E 47 52 170
E 47 53 2864
E 47 54 558
E 47 55 662
E 47 56 1489
E 47 57 856
E 47 58 1434
E 48 49 543
E 48 50 2931
E 48 51 448
E 48 52 342
E 48 53 2495
E 48 54 239
E 48 55 288
E 48 56 1797
E 48 57 1266
E 48 58 1878
E 49 50 3295
E 49 51 97
E 49 52 199
E 49 53 2859
E 49 54 588
E 49 55 692
E 49 56 1637
E 49 57 858
E 49 58 1339
E 50 51 3227
E 50 52 3206
E 50 53 446
E 50 54 2750
E 50 55 2649
E 50 56 4617
E 50 57 2417
E 50 58 1882
E 51 52 102
E 51 53 2791
E 51 54 486
E 51 55 590
E 51 56 1535
E 51 57 8700
E 51 58 1441
E 52 53 2770
E 52 54 389
E 52 55 497
E 52 56 1514
E 52 57 888
E 52 58 1543
E 53 54 2314
E 53 55 2213
E 53 56 4181
E 53 57 2105
E 53 58 1446
E 54 55 112
E 54 56 1972
E 54 57 994
E 54 58 1345
E 55 56 2076
E 55 57 1057
E 55 58 1408
E 56 57 2328
E 56 58 2986
E 57 58 962
END

SECTION Terminals
Terminals 25
T 1
T 4
T 5
T 7
T 8
T 11
T 16
T 17
T 19
T 20
T 22
T 25
T 30
T 31
T 32
T 37
T 38
T 40
T 42
T 43
T 44
T 50
T 51
T 53
T 57
END

EOF
